23259,
23259,
22642,
21718,
21393,
21256,
20940,
20638,
20570,
20537,
20463,
20294,
20234,
20049,
19991,
19738,
19382,
18988,
18630,
18131,
17498,
17498,
17414,
17414,
17414,
17393,
17324,
17324,
17324,
17309,
17073,
17073,
17073,
16897,
16897,
16828,
16691,
16629,
16557,
16514,
16429,
16429,
16191,
16191,
16191,
16191,
16191,
15876,
15876,
15616,
15578,
15557,
15519,
15519,
15519,
15519,
15519,
15519,
15519,
15519,
15519,
15519,
15519,
15519,
15519,
15519,
15519,
15105,
15085,
15085,
15066,
15066,
14907,
14897,
14897,
14897,
14897,
14897,
14897,
14879,
14879,
14879,
14879,
14870,
14870,
14870,
14870,
14870,
14870,
14870,
14870,
14870,
14870,
14800,
14800,
14800,
14800,
14800,
14800,
14731,
14731,
14731,
14731,
14731,
14723,
14723,
14723,
14723,
14723,
14723,
14391,
14391,
14391,
14391,
14391,
14391,
14391,
14391,
14391,
14391,
14391,
14391,
14371,
14371,
14371,
14371,
14346,
14346,
14336,
14331,
14252,
14238,
14238,
14238,
14175,
14175,
14175,
14149,
14149,
14149,
14149,
14149,
14149,
14149,
14149,
14149,
14149,
14149,
14149,
14149,
13984,
13984,
13984,
13984,
13984,
13974,
13934,
13934,
13924,
13794,
13794,
13777,
13777,
13648,
13633,
13537,
13522,
13510,
13510,
13355,
13355,
13355,
13355,
13355,
13275,
13275,
13275,
13275,
13275,
13275,
13275,
13275,
13126,
13126,
13075,
13075,
13060,
13060,
13060,
13058,
13058,
13058,
13058,
13058,
12942,
12942,
12942,
12942,
12942,
12942,
12942,
12942,
12942,
12229,
12229,
12226,
12226,
12226,
12226,
12226,
12226,
12191,
12191,
12191,
12191,
12191,
12191,
12191,
12191,
12191,
12147,
12147,
12147,
12147,
12147,
12147,
12147,
12147,
11890,
11890,
11890,
11890,
11890,
11890,
11890,
11890,
11890,
11890,
11890,
11890,
11890,
11890,
11890,
11890,
11890,
11890,
11890,
11890,
11890,
11890,
11890,
11890,
11890,
11890,
11844,
11844,
11825,
11797,
11778,
11778,
11778,
11778,
11778,
11778,
11778,
11778,
11778,
11778,
11778,
11778,
11778,
11778,
11778,
11778,
11778,
11778,
11778,
11753,
11753,
11753,
11753,
11753,
11753,
11753,
11753,
11753,
11753,
11753,
11753,
11753,
11753,
11753,
11753,
11753,
11726,
11726,
11726,
11726,
11726,
11726,
11726,
11726,
11726,
11726,
11726,
11726,
11726,
11726,
11726,
11726,
11726,
11726,
11726,
11726,
11726,
11726,
11726,
11662,
11662,
11662,
11662,
11662,
11662,
11662,
11662,
11662,
11662,
11662,
11662,
11662,
11552,
11552,
11552,
11552,
11552,
11552,
11552,
11552,
11494,
11494,
11494,
11494,
11494,
11494,
11494,
11494,
11494,
11494,
11494,
11494,
11494,
11494,
11494,
11494,
11494,
11494,
11494,
11494,
11494,
11494,
11494,
11494,
11494,
11494,
11494,
11494,
11494,
11494,
11494,
11494,
11494,
11494,
11494,
11386,
11386,
11386,
11386,
11386,
11386,
11386,
11386,
11386,
11386,
11386,
11386,
11386,
11386,
11386,
11386,
11386,
11386,
11386,
11386,
11386,
11386,
11386,
11386,
11386,
11386,
11386,
11386,
11386,
11153,
11153,
11153,
11153,
11153,
11153,
11153,
11153,
11153,
11153,
11153,
11153,
11153,
11153,
11153,
11153,
11153,
11153,
11153,
11153,
11153,
11140,
11140,
11140,
11140,
11140,
11140,
11140,
11140,
11140,
11140,
11140,
11140,
11140,
11140,
11140,
11140,
11140,
11140,
11140,
11140,
11140,
11140,
11140,
11140,
11140,
11140,
11140,
11140,
11140,
11140,
11140,
11140,
11140,
11140,
11140,
11140,
11140,
11140,
11140,
11140,
11140,
11140,
11140,
11140,
11140,
11140,
11140,
11140,
11140,
11140,
11140,
11140,
11140,
11140,
11140,
11098,
11098,
11098,
11098,
11098,
11098,
11098,
11098,
11098,
11098,
11098,
11098,
11098,
11098,
11098,
11098,
11098,
11098,
11098,
11077,
11077,
11077,
11077,
11077,
11077,
11077,
11077,
11077,
11077,
10948,
10948,
10948,
10948,
10948,
10948,
10948,
10948,
10948,
10948,
10948,
10948,
10948,
10948,
10948,
10948,
10780,
10780,
10780,
10752,
10752,
10752,
10752,
10752,
10752,
10752,
10752,
10752,
10752,
10752,
10752,
10752,
10752,
10752,
10752,
10752,
10752,
10752,
10752,
10752,
10752,
10752,
10752,
10752,
10752,
10752,
10752,
10752,
10752,
10752,
10752,
10752,
10752,
10752,
10752,
10752,
10752,
10752,
10752,
10752,
10752,
10752,
10752,
10752,
10752,
10752,
10752,
10752,
10752,
10752,
10752,
10752,
10752,
10752,
10752,
10752,
10752,
10752,
10752,
10752,
10752,
10752,
10752,
10752,
10752,
10752,
10752,
10752,
10752,
10752,
10752,
10752,
10752,
10752,
10752,
10752,
10745,
10745,
10745,
10745,
10745,
10745,
10745,
10745,
10745,
10745,
10745,
10745,
10745,
10745,
10745,
10745,
10745,
10745,
10745,
10745,
10738,
10738,
10738,
10702,
10702,
10700,
10662,
10662,
10662,
10662,
10662,
10662,
10662,
10662,
10662,
10662,
10662,
10662,
10662,
10662,
10662,
10662,
10662,
10662,
10662,
10662,
10662,
10662,
10641,
10641,
10641,
10641,
10641,
10641,
10641,
10641,
10641,
10641,
10641,
10641,
10641,
10641,
10641,
10641,
10641,
10641,
10641,
10641,
10641,
10641,
10641,
10641,
10641,
10641,
10641,
10641,
10641,
10641,
10641,
10641,
10641,
10641,
10641,
10641,
10641,
10641,
10641,
10641,
10641,
10641,
10641,
10641,
10641,
10641,
10641,
10641,
10641,
10641,
10641,
10641,
10641,
10641,
10641,
10641,
10641,
10641,
10641,
10641,
10641,
10641,
10641,
10641,
10641,
10641,
10641,
10641,
10641,
10641,
10641,
10641,
10641,
10641,
10641,
10641,
10641,
10641,
10641,
10641,
10641,
10641,
10641,
10641,
10641,
10641,
10641,
10641,
10641,
10641,
10641,
10641,
10641,
10641,
10641,
10641,
10641,
10641,
10641,
10641,
10641,
10641,
10641,
10641,
10641,
10641,
10641,
10641,
10641,
10641,
10641,
10641,
10641,
10641,
10641,
10641,
10641,
10641,
10641,
10641,
10641,
10641,
10641,
10641,
10641,
10641,
10641,
10641,
10641,
10641,
10641,
10641,
10641,
10641,
10641,
10641,
10641,
10641,
10641,
10641,
10641,
10641,
10641,
10641,
10641,
10641,
10641,
10641,
10641,
10641,
10641,
10641,
10641,
10641,
10641,
10641,
10641,
10641,
10641,
10641,
10641,
10641,
10641,
10641,
10641,
10641,
10641,
10641,
10641,
10641,
10641,
10641,
10641,
10641,
10641,
10641,
10641,
10641,
10641,
10641,
10641,
10641,
10641,
10641,
10641,
10641,
10641,
10641,
10641,
10641,
10641,
10641,
10641,
10641,
10641,
10641,
10641,
10641,
10641,
10641,
10641,
10641,
10641,
10641,
10641,
10641,
10641,
10641,
10641,
10641,
10641,
10641,
10641,
10641,
10641,
10641,
10641,
10641,
10641,
10641,
10641,
10641,
10641,
10641,
10641,
10641,
10641,
10641,
10641,
10641,
10641,
10641,
10641,
10641,
10641,
10641,
10641,
10641,
10641,
10641,
10641,
10641,
10641,
10641,
10641,
10641,
10641,
10641,
10641,
10641,
10641,
10641,
10641,
10641,
10641,
10641,
10641,
10641,
10641,
10641,
10641,
10641,
10641,
10641,
10641,
10641,
10641,
10641,
10641,
10641,
10641,
10641,
10641,
10641,
10641,
10641,
10641,
10641,
10641,
10641,
10641,
10641,
10641,
10641,
10641,
10641,
10641,
10641,
10641,
10641,
10641,
10641,
10641,
10641,
10641,
10641,
10641,
10641,
10641,
10641,
10641,
10641,
10641,
10641,
10641,
10641,
10641,
10641,
10641,
10641,
10641,
10641,
10641,
10641,
10641,
10641,
10641,
10641,
10641,
10641,
10641,
10641,
10641,
10641,
10641,
10641,
10641,
10641,
10641,
10641,
10641,
10641,
10641,
10641,
10641,
10641,
10641,
10641,
10641,
10641,
10641,
10641,
10641,
10641,
10641,
10641,
10641,
10641,
10641,
10641,
1,
